WARNING: for repeatability, setting FPU to use double precision
============================[ Problem Statistics ]=============================
|                                                                             |
|  Number of variables:         10268                                         |
|  Number of clauses:          330371                                         |
|  Parse time:                   0.06 s                                       |
|  Eliminated clauses:           0.04 Mb                                      |
|  Simplification time:          0.23 s                                       |
|                                                                             |
============================[ Search Statistics ]==============================
| Conflicts |          ORIGINAL         |          LEARNT          | Progress |
|           |    Vars  Clauses Literals |    Limit  Clauses Lit/Cl |          |
===============================================================================
===============================================================================
restarts              : 1
conflicts             : 95             (320 /sec)
decisions             : 355            (0.00 % random) (1196 /sec)
propagations          : 32465          (109356 /sec)
conflict literals     : 741            (21.59 % deleted)
Memory used           : 32.68 MB
CPU time              : 0.296875 s

SATISFIABLE
